% es. A.5.3
% edge colouring

n_vertex = 11;

edges = [{2,3},         % 1
         {1,3,4,5},     % 2
         {1,2,4,6},     % 3
         {2,3,5,7},     % 4
         {2,4,7,8},     % 5
         {3,7,11},      % 6
         {4,5,6,8,11},  % 7
         {5,7,9,10,11}, % 8
         {8,10},        % 9
         {8,9,11},      % 10
         {6,7,8,10}];   % 11
